c CNF file generated from BLIF2CNF script.
c Original BLIF file was blif/cm162a.blif
p cnf 73 173
-1 -6 0
-3 -6 0
6 1 3  0
-6 5 0
-2 -7 0
-3 -7 0
7 2 3  0
-7 5 0
-1 -8 0
-4 -8 0
8 1 4  0
-8 5 0
-2 -9 0
-4 -9 0
9 2 4  0
-9 5 0
-5 6 7 8 9  0
-10 -13 0
-11 -13 0
13 10 11  0
-13 12 0
-2 -14 0
-11 -14 0
14 2 11  0
-14 12 0
-10 -15 0
-4 -15 0
15 10 4  0
-15 12 0
-2 -16 0
-4 -16 0
16 2 4  0
-16 12 0
-12 13 14 15 16  0
-17 -20 0
-18 -20 0
20 17 18  0
-20 19 0
-2 -21 0
-18 -21 0
21 2 18  0
-21 19 0
-17 -22 0
-4 -22 0
22 17 4  0
-22 19 0
-2 -23 0
-4 -23 0
23 2 4  0
-23 19 0
-19 20 21 22 23  0
-24 -27 0
-25 -27 0
27 24 25  0
-27 26 0
-2 -28 0
-25 -28 0
28 2 25  0
-28 26 0
-24 -29 0
-4 -29 0
29 24 4  0
-29 26 0
-2 -30 0
-4 -30 0
30 2 4  0
-30 26 0
-26 27 28 29 30  0
-31 -34 0
32 -34 0
34 31 -32  0
-34 33 0
-33 34  0
-35 -37 0
-36 -37 0
37 35 36  0
-37 2 0
-2 37  0
-38 -40 0
39 -40 0
40 38 -39  0
-40 3 0
38 -41 0
-39 -41 0
41 -38 39  0
-41 3 0
-3 40 41  0
-42 -43 0
-36 -43 0
43 42 36  0
-43 4 0
-4 43  0
44 -46 0
45 -46 0
46 -44 -45  0
-46 11 0
-44 -47 0
-45 -47 0
47 44 45  0
-47 11 0
-11 46 47  0
48 -50 0
50 -48  0
-50 35 0
-49 -51 0
51 49  0
-51 35 0
-35 50 51  0
-48 -52 0
52 48  0
-52 42 0
-49 -53 0
53 49  0
-53 42 0
-42 52 53  0
-54 -55 0
55 54  0
-55 38 0
-48 -56 0
56 48  0
-56 38 0
-32 -57 0
57 32  0
-57 38 0
-38 55 56 57  0
-39 -58 0
-38 -58 0
58 39 38  0
-58 44 0
-44 58  0
-59 -61 0
61 59  0
-61 31 0
-60 -62 0
62 60  0
-62 31 0
-31 61 62  0
-31 -63 0
-38 -63 0
63 31 38  0
-63 36 0
-36 63  0
64 -66 0
65 -66 0
66 -64 -65  0
-66 18 0
-64 -67 0
-65 -67 0
67 64 65  0
-67 18 0
-18 66 67  0
68 -70 0
69 -70 0
70 -68 -69  0
-70 25 0
-68 -71 0
-69 -71 0
71 68 69  0
-71 25 0
-25 70 71  0
-38 -72 0
-39 -72 0
-45 -72 0
72 38 39 45  0
-72 64 0
-64 72  0
-65 -73 0
-38 -73 0
-39 -73 0
-45 -73 0
73 65 38 39 45  0
-73 68 0
-68 73  0
